num_offers = 30;
num_halls = 10;
start=[29,20,70,66,19,2,47,44,52,82,59,4,44,74,35,33,1,25,4,13,24,11,33,36,41,43,77,17,34,22];
end=[77,78,81,76,40,36,83,83,73,98,77,61,63,77,79,36,56,67,61,50,48,67,84,54,43,68,98,30,86,72];
price=[2262,2898,457,119,1683,930,2763,2887,2013,438,290,923,1256,99,777,261,2562,2838,2185,1076,1765,5679,3896,300,222,994,683,229,729,2258];
requirement=[656,653,449,743,630,520,440,284,661,464,415,277,632,469,493,333,726,235,427,308,268,551,666,554,462,708,719,530,515,609];
capacity=[935,923,910,995,873,626,583,291,653,513];
